certificates/rado_a17_c16_N36.cnf
c Rad2 upper bound instance: x1 + 17*x2 - x3 = 16, interval [1,36]
p cnf 36 108
1 2 0
-1 -2 0
1 2 19 0
-1 -2 -19 0
1 3 36 0
-1 -3 -36 0
1 2 3 0
-1 -2 -3 0
2 20 0
-2 -20 0
1 3 4 0
-1 -3 -4 0
2 3 21 0
-2 -3 -21 0
1 4 5 0
-1 -4 -5 0
2 4 22 0
-2 -4 -22 0
1 5 6 0
-1 -5 -6 0
2 5 23 0
-2 -5 -23 0
1 6 7 0
-1 -6 -7 0
2 6 24 0
-2 -6 -24 0
1 7 8 0
-1 -7 -8 0
2 7 25 0
-2 -7 -25 0
1 8 9 0
-1 -8 -9 0
2 8 26 0
-2 -8 -26 0
1 9 10 0
-1 -9 -10 0
2 9 27 0
-2 -9 -27 0
1 10 11 0
-1 -10 -11 0
2 10 28 0
-2 -10 -28 0
1 11 12 0
-1 -11 -12 0
2 11 29 0
-2 -11 -29 0
1 12 13 0
-1 -12 -13 0
2 12 30 0
-2 -12 -30 0
1 13 14 0
-1 -13 -14 0
2 13 31 0
-2 -13 -31 0
1 14 15 0
-1 -14 -15 0
2 14 32 0
-2 -14 -32 0
1 15 16 0
-1 -15 -16 0
2 15 33 0
-2 -15 -33 0
1 16 17 0
-1 -16 -17 0
2 16 34 0
-2 -16 -34 0
1 17 18 0
-1 -17 -18 0
2 17 35 0
-2 -17 -35 0
1 18 19 0
-1 -18 -19 0
2 18 36 0
-2 -18 -36 0
1 19 20 0
-1 -19 -20 0
1 20 21 0
-1 -20 -21 0
1 21 22 0
-1 -21 -22 0
1 22 23 0
-1 -22 -23 0
1 23 24 0
-1 -23 -24 0
1 24 25 0
-1 -24 -25 0
1 25 26 0
-1 -25 -26 0
1 26 27 0
-1 -26 -27 0
1 27 28 0
-1 -27 -28 0
1 28 29 0
-1 -28 -29 0
1 29 30 0
-1 -29 -30 0
1 30 31 0
-1 -30 -31 0
1 31 32 0
-1 -31 -32 0
1 32 33 0
-1 -32 -33 0
1 33 34 0
-1 -33 -34 0
1 34 35 0
-1 -34 -35 0
1 35 36 0
-1 -35 -36 0
