certificates/rado_a17_c16_N36.drat
-35 -36 0
d -35 -1 -36 0
17 18 35 0
-2 35 0
-36 0
35 0
2 0
-1 0
-20 0
-17 0
3 0
21 0
19 0
18 0
16 0
0
